(set-info :smt-lib-version 2.6)
(set-logic QF_LIA)
(set-info :category "industrial")
(set-info :status sat)
(declare-fun x0 () Int)
(declare-fun x1 () Int)
(declare-fun x10 () Int)
(declare-fun x11 () Int)
(declare-fun x12 () Int)
(declare-fun x13 () Int)
(declare-fun x14 () Int)
(declare-fun x15 () Int)
(declare-fun x16 () Int)
(declare-fun x17 () Int)
(declare-fun x18 () Int)
(declare-fun x19 () Int)
(declare-fun x2 () Int)
(declare-fun x20 () Int)
(declare-fun x21 () Int)
(declare-fun x22 () Int)
(declare-fun x23 () Int)
(declare-fun x24 () Int)
(declare-fun x25 () Int)
(declare-fun x26 () Int)
(declare-fun x27 () Int)
(declare-fun x28 () Int)
(declare-fun x29 () Int)
(declare-fun x3 () Int)
(declare-fun x30 () Int)
(declare-fun x31 () Int)
(declare-fun x32 () Int)
(declare-fun x33 () Int)
(declare-fun x34 () Int)
(declare-fun x35 () Int)
(declare-fun x36 () Int)
(declare-fun x37 () Int)
(declare-fun x38 () Int)
(declare-fun x39 () Int)
(declare-fun x4 () Int)
(declare-fun x5 () Int)
(declare-fun x6 () Int)
(declare-fun x7 () Int)
(declare-fun x8 () Int)
(declare-fun x9 () Int)
(assert (let ((?v_9 (* 1 x12)) (?v_10 (* 0 x13)) (?v_43 (* 1 x15)) (?v_76 (* 0 x18)) (?v_5 (* 0 x19)) (?v_1 (* 0 x20)) (?v_2 (* 0 x22)) (?v_3 (* 0 x31)) (?v_19 (* 0 x33)) (?v_7 (* 0 x34)) (?v_27 (* 0 x37)) (?v_11 (* 1 x0)) (?v_81 (* 1 x2)) (?v_116 (* 1 x24)) (?v_82 (* 1 x25)) (?v_38 (* 1 x29)) (?v_26 (* 1 x36)) (?v_94 (* 0 x14)) (?v_74 (* 0 x0)) (?v_21 (* 1 x1)) (?v_71 (* 1 x13)) (?v_75 (* 2 x11)) (?v_24 (* 0 x17)) (?v_37 (* 0 x21)) (?v_56 (* 0 x25)) (?v_102 (* 1 x28)) (?v_6 (* 0 x3)) (?v_73 (* 0 x32)) (?v_20 (* 0 x35)) (?v_86 (* 1 x34)) (?v_28 (* 0 x38)) (?v_51 (* 0 x4)) (?v_59 (* 0 x6)) (?v_8 (* 1 x33)) (?v_30 (* 1 x8)) (?v_124 (* 1 x14)) (?v_32 (* 0 x10)) (?v_14 (* 0 x15)) (?v_36 (* 1 x16)) (?v_91 (* 0 x2)) (?v_18 (* 0 x27)) (?v_111 (* 1 x35)) (?v_120 (* 1 x39)) (?v_52 (* 1 x5)) (?v_22 (* 0 x11)) (?v_92 (* 0 x23)) (?v_55 (* 0 x24)) (?v_31 (* 0 x26)) (?v_79 (* 0 x29)) (?v_69 (* 1 x3)) (?v_50 (* 1 x32)) (?v_29 (* 0 x39)) (?v_95 (* 1 x4)) (?v_39 (* 0 x7)) (?v_42 (* 1 x10)) (?v_49 (* 0 x30)) (?v_58 (* 0 x5)) (?v_88 (* 1 x6)) (?v_40 (* 0 x1)) (?v_41 (* 0 x12)) (?v_101 (* 1 x17)) (?v_66 (* 1 x22)) (?v_129 (* 1 x23)) (?v_62 (* 0 x9)) (?v_54 (* 1 x26))) (let ((?v_126 (+ ?v_62 ?v_54)) (?v_64 (* 1 x11)) (?v_85 (* 1 x19)) (?v_57 (* 0 x28)) (?v_60 (* 0 x8)) (?v_61 (* 1 x27)) (?v_98 (* 1 x18)) (?v_106 (* 1 x31)) (?v_80 (* 1 x37)) (?v_89 (* 1 x9)) (?v_100 (* 1 x7)) (?v_84 (* 0 x16)) (?v_99 (* 0 x36)) (?v_87 (* 1 x38)) (?v_107 (* 1 x21)) (?v_105 (* 2 x33)) (?v_117 (* 1 x30)) (?v_115 (* 1 x20)) (?v_113 (* 2 x9)) (?v_123 (* 2 x15)) (?v_110 (* (- 1) x11)) (?v_103 (* (- 2) x5)) (?v_13 (* (- 1) x17)) (?v_0 (* (- 1) x30)) (?v_35 (* (- 1) x4)) (?v_48 (* (- 1) x7)) (?v_68 (* (- 1) x27)) (?v_4 (* (- 2) x9)) (?v_23 (* (- 1) x15)) (?v_33 (* (- 1) x19)) (?v_46 (* (- 1) x23)) (?v_63 (* (- 1) x13)) (?v_12 (* (- 1) x14)) (?v_45 (* (- 1) x22)) (?v_16 (* (- 1) x25)) (?v_97 (* (- 1) x28)) (?v_25 (* (- 1) x29)) (?v_15 (* (- 1) x18)) (?v_17 (* (- 1) x31)) (?v_47 (* (- 1) x36)) (?v_34 (* (- 1) x37)) (?v_65 (* (- 1) x2)) (?v_83 (* (- 1) x5)) (?v_44 (* (- 1) x20)) (?v_72 (* (- 1) x3)) (?v_90 (* (- 1) x32)) (?v_53 (* (- 1) x9)) (?v_119 (* (- 1) x33)) (?v_70 (* (- 1) x12)) (?v_67 (* (- 1) x26)) (?v_96 (* (- 1) x10)) (?v_77 (* (- 1) x21)) (?v_78 (* (- 1) x6)) (?v_122 (* (- 1) x16)) (?v_93 (* (- 1) x24)) (?v_104 (* (- 1) x34)) (?v_108 (* (- 1) x35)) (?v_118 (* (- 1) x38)) (?v_109 (* (- 1) x1)) (?v_112 (* (- 2) x31)) (?v_114 (* (- 1) x39)) (?v_125 (* (- 1) x8)) (?v_128 (* (- 2) x3)) (?v_121 (* (- 2) x39)) (?v_127 (* (- 2) x35))) (and (<= (+ ?v_110 (+ ?v_9 (+ ?v_10 (+ ?v_103 (+ ?v_13 (+ ?v_0 (+ ?v_35 (+ ?v_43 (+ ?v_76 (+ ?v_5 (+ ?v_1 (+ ?v_2 (+ ?v_3 (+ ?v_19 (+ ?v_7 (+ ?v_27 (+ ?v_11 (+ ?v_48 (+ ?v_81 (+ ?v_116 (+ ?v_82 (+ ?v_68 (+ ?v_38 (+ ?v_26 (+ ?v_4 ?v_94))))))))))))))))))))))))) 0) (<= (+ (* (- 2) x10) (+ ?v_23 (+ ?v_33 (+ ?v_46 (+ ?v_0 (+ ?v_74 (+ ?v_21 (+ ?v_71 (+ ?v_75 (+ ?v_24 (+ ?v_1 (+ ?v_37 (+ ?v_2 (+ ?v_56 (+ ?v_102 (+ ?v_6 (+ ?v_3 (+ ?v_73 (+ ?v_20 (+ ?v_86 (+ ?v_28 (+ ?v_51 (+ ?v_59 (+ ?v_8 (+ ?v_30 (+ ?v_4 ?v_124)))))))))))))))))))))))))) 0) (<= (+ ?v_63 (+ ?v_32 (+ ?v_12 (+ ?v_45 (+ ?v_16 (+ ?v_97 (+ ?v_25 (+ ?v_0 (+ ?v_14 (+ ?v_15 (+ ?v_5 (+ ?v_6 (+ ?v_17 (+ ?v_47 (+ ?v_34 (+ ?v_36 (+ ?v_91 (+ ?v_18 (+ ?v_7 (+ ?v_8 (+ ?v_111 (+ ?v_120 ?v_52)))))))))))))))))))))) 0) (<= (+ (* (- 2) x1) (+ ?v_22 (+ ?v_9 (+ ?v_10 (+ ?v_11 (+ ?v_12 (+ ?v_13 (+ ?v_14 (+ ?v_15 (+ ?v_65 (+ ?v_92 (+ ?v_16 (+ ?v_0 (+ ?v_17 (+ ?v_83 (+ ?v_55 (+ ?v_31 (+ ?v_18 (+ ?v_79 (+ ?v_69 (+ ?v_50 (+ ?v_19 (+ ?v_20 (+ ?v_29 (+ ?v_95 ?v_39))))))))))))))))))))))))) 0) (<= (+ ?v_21 (+ ?v_22 (+ ?v_10 (+ ?v_42 (+ ?v_9 (+ ?v_12 (+ ?v_23 (+ ?v_24 (+ ?v_15 (+ ?v_44 (+ ?v_25 (+ (* 2 x22) (+ ?v_72 (+ ?v_49 (+ ?v_17 (+ ?v_90 (+ ?v_18 (+ ?v_7 (+ ?v_26 (+ ?v_27 (+ ?v_28 (+ ?v_29 (+ ?v_58 (+ ?v_88 (+ ?v_30 (+ ?v_53 ?v_31)))))))))))))))))))))))))) 0) (<= (+ ?v_40 (+ ?v_32 (+ ?v_22 (+ ?v_41 (+ ?v_10 (+ ?v_12 (+ ?v_33 (+ ?v_101 (+ ?v_119 (+ ?v_34 (+ ?v_35 (+ ?v_36 (+ ?v_37 (+ ?v_66 (+ ?v_129 (+ ?v_18 (+ ?v_38 (+ ?v_6 (+ ?v_3 (+ ?v_29 (+ ?v_26 (+ ?v_39 ?v_126)))))))))))))))))))))) 1) (<= (+ ?v_40 (+ ?v_41 (+ ?v_10 (+ ?v_11 (+ ?v_42 (+ ?v_64 (+ ?v_12 (+ ?v_24 (+ ?v_43 (+ ?v_15 (+ ?v_85 (+ ?v_44 (+ ?v_45 (+ ?v_46 (+ ?v_47 (+ ?v_48 (+ ?v_37 (+ ?v_57 (+ ?v_49 (+ ?v_3 (+ ?v_50 (+ ?v_7 (+ ?v_20 (+ ?v_27 (+ ?v_51 (+ ?v_60 (+ ?v_61 (+ ?v_52 (+ ?v_53 ?v_54))))))))))))))))))))))))))))) 0) (<= (+ ?v_40 (+ ?v_70 (+ ?v_22 (+ (* 2 x0) (+ (* 2 x10) (+ ?v_12 (+ ?v_23 (+ ?v_33 (+ ?v_24 (+ ?v_1 (+ ?v_98 (+ ?v_55 (+ ?v_56 (+ ?v_36 (+ ?v_67 (+ ?v_57 (+ ?v_6 (+ ?v_3 (+ ?v_7 (+ ?v_26 (+ ?v_27 (+ ?v_29 (+ ?v_51 (+ ?v_58 (+ ?v_59 (+ ?v_48 (+ ?v_60 (+ ?v_61 ?v_62)))))))))))))))))))))))))))) 0) (<= (+ ?v_21 (+ ?v_63 (+ ?v_32 (+ ?v_64 (+ (* (- 2) x18) (+ ?v_12 (+ ?v_23 (+ ?v_24 (+ ?v_65 (+ ?v_16 (+ ?v_37 (+ ?v_66 (+ ?v_67 (+ ?v_68 (+ ?v_29 (+ ?v_51 (+ ?v_69 (+ ?v_106 (+ ?v_50 (+ ?v_8 (+ ?v_26 (+ ?v_80 (+ ?v_48 ?v_89))))))))))))))))))))))) 0) (<= (+ ?v_40 (+ ?v_96 (+ ?v_70 (+ ?v_22 (+ ?v_71 (+ ?v_5 (+ ?v_44 (+ ?v_43 (+ ?v_77 (+ ?v_66 (+ ?v_16 (+ ?v_72 (+ ?v_35 (+ ?v_78 (+ ?v_55 (+ ?v_18 (+ ?v_57 (+ ?v_73 (+ (* 3 x30) (+ ?v_19 (+ (* 2 x34) (+ (* 2 x35) (+ ?v_28 (+ ?v_29 (+ ?v_39 ?v_30))))))))))))))))))))))))) 0) (<= (+ (* (- 2) x32) (+ ?v_74 (+ ?v_40 (+ ?v_9 (+ ?v_75 (+ ?v_43 (+ ?v_122 (+ ?v_33 (+ ?v_24 (+ ?v_76 (+ ?v_1 (+ ?v_77 (+ ?v_66 (+ ?v_93 (+ ?v_104 (+ ?v_35 (+ ?v_78 (+ ?v_56 (+ ?v_67 (+ ?v_18 (+ ?v_79 (+ ?v_29 (+ ?v_26 (+ ?v_80 (+ ?v_100 ?v_62))))))))))))))))))))))))) 1) (<= (+ (* (- 2) x11) (+ ?v_13 (+ ?v_15 (+ ?v_74 (+ ?v_40 (+ ?v_14 (+ ?v_84 (+ ?v_81 (+ (* 2 x20) (+ ?v_77 (+ ?v_2 (+ ?v_55 (+ ?v_82 (+ ?v_67 (+ ?v_6 (+ ?v_99 (+ ?v_34 (+ ?v_51 (+ ?v_83 (+ ?v_78 (+ ?v_60 (+ ?v_8 (+ ?v_87 (+ (* 2 x27) ?v_62)))))))))))))))))))))))) 1) (<= (+ ?v_63 (+ ?v_15 (+ ?v_45 (+ ?v_25 (+ ?v_72 (+ ?v_0 (+ ?v_108 (+ ?v_83 (+ ?v_74 (+ ?v_40 (+ ?v_41 (+ ?v_42 (+ ?v_64 (+ ?v_14 (+ ?v_84 (+ ?v_85 (+ ?v_55 (+ ?v_3 (+ ?v_27 (+ ?v_39 (+ ?v_107 (+ ?v_67 (+ ?v_61 (+ ?v_86 (+ ?v_87 (+ ?v_88 (+ ?v_30 (+ ?v_105 ?v_89)))))))))))))))))))))))))))) 1) (<= (+ ?v_33 (+ (* (- 2) x20) (+ ?v_90 (+ ?v_47 (+ ?v_35 (+ ?v_74 (+ ?v_32 (+ ?v_22 (+ ?v_41 (+ ?v_10 (+ ?v_43 (+ ?v_84 (+ ?v_76 (+ ?v_91 (+ ?v_37 (+ ?v_2 (+ ?v_92 (+ ?v_56 (+ ?v_67 (+ ?v_68 (+ ?v_79 (+ ?v_69 (+ ?v_19 (+ ?v_59 (+ ?v_80 (+ ?v_48 ?v_53)))))))))))))))))))))))))) (- 1)) (<= (+ ?v_22 (+ ?v_71 (+ ?v_46 (+ ?v_118 (+ ?v_83 (+ ?v_74 (+ ?v_24 (+ ?v_5 (+ ?v_93 (+ ?v_48 (+ ?v_94 (+ ?v_37 (+ ?v_66 (+ ?v_56 (+ ?v_79 (+ ?v_117 (+ (* 2 x3) (+ ?v_3 (+ ?v_27 (+ ?v_29 (+ ?v_59 (+ ?v_8 (+ ?v_95 ?v_62))))))))))))))))))))))) (- 1)) (<= (+ ?v_40 (+ ?v_96 (+ ?v_41 (+ ?v_63 (+ ?v_33 (+ ?v_77 (+ ?v_45 (+ ?v_97 (+ ?v_72 (+ ?v_94 (+ ?v_14 (+ ?v_92 (+ ?v_98 (+ ?v_55 (+ ?v_31 (+ ?v_18 (+ ?v_3 (+ ?v_50 (+ ?v_19 (+ ?v_7 (+ ?v_99 (+ ?v_27 (+ ?v_59 (+ ?v_52 (+ ?v_100 ?v_89))))))))))))))))))))))))) 1) (<= (+ ?v_109 (+ ?v_22 (+ ?v_42 (+ ?v_15 (+ ?v_77 (+ ?v_45 (+ ?v_35 (+ ?v_94 (+ ?v_5 (+ ?v_1 (+ ?v_92 (+ ?v_55 (+ ?v_56 (+ ?v_73 (+ ?v_20 (+ ?v_29 (+ ?v_58 (+ ?v_59 (+ ?v_60 (+ ?v_36 (+ ?v_101 (+ ?v_31 (+ ?v_18 (+ ?v_102 (+ ?v_86 (+ ?v_28 ?v_62)))))))))))))))))))))))))) (- 1)) (<= (+ ?v_70 (+ ?v_42 (+ ?v_75 (+ ?v_23 (+ ?v_15 (+ ?v_44 (+ ?v_97 (+ (* (- 4) x33) (+ ?v_112 (+ ?v_103 (+ ?v_104 (+ ?v_114 (+ ?v_94 (+ ?v_84 (+ ?v_85 (+ ?v_37 (+ ?v_92 (+ ?v_31 (+ ?v_38 (+ ?v_6 (+ ?v_49 (+ ?v_20 (+ ?v_28 (+ ?v_39 ?v_61)))))))))))))))))))))))) 0) (<= (+ ?v_15 (+ ?v_74 (+ ?v_68 (+ ?v_0 (+ ?v_17 (+ ?v_104 (+ ?v_125 (+ ?v_94 (+ ?v_14 (+ ?v_84 (+ ?v_24 (+ ?v_91 (+ ?v_1 (+ ?v_37 (+ ?v_92 (+ ?v_55 (+ ?v_82 (+ ?v_31 (+ ?v_69 (+ ?v_80 (+ ?v_87 (+ ?v_52 (+ ?v_88 (+ ?v_105 (+ ?v_39 ?v_89))))))))))))))))))))))))) 1) (<= (+ ?v_40 (+ ?v_41 (+ ?v_10 (+ ?v_128 (+ ?v_15 (+ ?v_74 (+ ?v_65 (+ ?v_44 (+ ?v_16 (+ ?v_0 (+ ?v_53 (+ ?v_94 (+ ?v_24 (+ ?v_85 (+ ?v_66 (+ ?v_92 (+ ?v_31 (+ ?v_57 (+ ?v_20 (+ ?v_28 (+ ?v_29 (+ ?v_59 (+ ?v_106 ?v_86))))))))))))))))))))))) 0) (<= (+ ?v_96 (+ ?v_22 (+ ?v_45 (+ ?v_90 (+ (* (- 2) x33) (+ ?v_104 (+ ?v_83 (+ ?v_48 (+ ?v_94 (+ ?v_55 (+ ?v_29 (+ ?v_51 (+ ?v_59 (+ ?v_36 (+ ?v_101 (+ ?v_98 (+ ?v_85 (+ ?v_115 (+ ?v_107 (+ ?v_18 (+ ?v_3 (+ ?v_26 (+ ?v_87 ?v_89))))))))))))))))))))))) 0) (<= (+ ?v_121 (+ ?v_10 (+ ?v_44 (+ ?v_11 (+ ?v_77 (+ ?v_17 (+ ?v_35 (+ ?v_78 (+ ?v_94 (+ ?v_84 (+ ?v_5 (+ ?v_101 (+ ?v_76 (+ ?v_91 (+ ?v_2 (+ ?v_55 (+ ?v_82 (+ ?v_18 (+ ?v_38 (+ ?v_49 (+ ?v_7 (+ ?v_99 (+ ?v_58 (+ ?v_39 ?v_113)))))))))))))))))))))))) 0) (<= (+ ?v_96 (+ ?v_70 (+ ?v_10 (+ ?v_45 (+ ?v_1 (+ ?v_11 (+ ?v_43 (+ ?v_85 (+ ?v_93 (+ ?v_16 (+ ?v_108 (+ ?v_94 (+ ?v_57 (+ ?v_79 (+ ?v_3 (+ ?v_19 (+ ?v_29 (+ ?v_59 (+ ?v_60 (+ ?v_36 (+ ?v_26 (+ (* 2 x7) ?v_62)))))))))))))))))))))) 1) (<= (+ ?v_109 (+ ?v_110 (+ ?v_15 (+ ?v_90 (+ ?v_34 (+ ?v_83 (+ ?v_74 (+ (* 3 x12) (+ ?v_10 (+ ?v_48 (+ ?v_94 (+ ?v_24 (+ ?v_85 (+ ?v_1 (+ ?v_66 (+ ?v_92 (+ ?v_43 (+ ?v_55 (+ ?v_57 (+ ?v_19 (+ ?v_59 (+ ?v_60 (+ ?v_107 (+ ?v_38 (+ ?v_106 (+ ?v_111 (+ (* 2 x36) ?v_62))))))))))))))))))))))))))) (- 1)) (<= (+ ?v_40 (+ ?v_25 (+ ?v_42 (+ ?v_71 (+ ?v_85 (+ ?v_16 (+ ?v_6 (+ ?v_49 (+ ?v_112 (+ ?v_127 (+ ?v_7 (+ (* (- 2) x37) (+ ?v_93 (+ ?v_51 (+ ?v_48 (+ ?v_94 (+ ?v_60 (+ ?v_81 (+ ?v_37 (+ ?v_61 (+ ?v_102 ?v_113))))))))))))))))))))) (- 1)) (<= (+ ?v_96 (+ ?v_22 (+ ?v_41 (+ (* (- 2) x23) (+ ?v_74 (+ ?v_65 (+ ?v_44 (+ ?v_72 (+ ?v_34 (+ ?v_114 (+ ?v_94 (+ ?v_84 (+ ?v_76 (+ ?v_5 (+ ?v_79 (+ ?v_49 (+ ?v_82 (+ ?v_3 (+ ?v_7 (+ ?v_20 (+ ?v_99 (+ ?v_95 (+ ?v_58 (+ ?v_88 ?v_62)))))))))))))))))))))))) 1) (<= (+ ?v_74 (+ ?v_21 (+ ?v_32 (+ ?v_22 (+ ?v_9 (+ (* (- 2) x16) (+ ?v_46 (+ ?v_104 (+ ?v_24 (+ ?v_76 (+ ?v_115 (+ ?v_17 (+ ?v_37 (+ ?v_56 (+ ?v_73 (+ ?v_20 (+ ?v_39 (+ ?v_60 (+ ?v_116 (+ ?v_61 (+ ?v_38 (+ ?v_117 (+ ?v_80 ?v_88))))))))))))))))))))))) 1) (<= (+ (* (- 1) x0) (+ ?v_21 (+ ?v_41 (+ ?v_13 (+ ?v_46 (+ ?v_16 (+ ?v_72 (+ ?v_108 (+ ?v_118 (+ ?v_123 (+ ?v_119 (+ ?v_84 (+ ?v_76 (+ ?v_5 (+ ?v_91 (+ ?v_115 (+ ?v_31 (+ ?v_18 (+ ?v_51 (+ ?v_102 (+ ?v_99 (+ ?v_86 (+ ?v_120 ?v_30))))))))))))))))))))))) 0) (<= (+ ?v_121 (+ ?v_32 (+ ?v_41 (+ (* 2 x13) (+ ?v_14 (+ ?v_11 (+ ?v_122 (+ ?v_45 (+ ?v_46 (+ ?v_76 (+ ?v_91 (+ ?v_115 (+ ?v_37 (+ ?v_56 (+ ?v_31 (+ ?v_57 (+ ?v_117 (+ ?v_3 (+ ?v_26 (+ ?v_28 (+ ?v_88 (+ ?v_60 ?v_62)))))))))))))))))))))) 0) (<= (+ ?v_64 (+ ?v_9 (+ ?v_71 (+ ?v_13 (+ ?v_44 (+ ?v_91 (+ ?v_77 (+ ?v_97 (+ ?v_47 (+ ?v_55 (+ ?v_82 (+ ?v_31 (+ ?v_18 (+ ?v_38 (+ ?v_6 (+ ?v_49 (+ ?v_73 (+ ?v_7 (+ ?v_28 (+ ?v_29 (+ ?v_58 (+ ?v_60 (+ ?v_8 (+ ?v_111 (* 2 x37))))))))))))))))))))))))) 0) (<= (+ ?v_109 (+ ?v_45 (+ ?v_32 (+ ?v_22 (+ ?v_71 (+ ?v_0 (+ ?v_114 (+ ?v_11 (+ ?v_84 (+ ?v_76 (+ ?v_5 (+ ?v_37 (+ ?v_55 (+ ?v_82 (+ ?v_68 (+ ?v_31 (+ ?v_102 (+ ?v_19 (+ ?v_86 (+ ?v_27 (+ ?v_28 (+ ?v_58 (+ ?v_59 ?v_62))))))))))))))))))))))) 1) (<= (+ ?v_22 (+ ?v_10 (+ ?v_11 (+ ?v_42 (+ ?v_123 (+ ?v_122 (+ ?v_13 (+ ?v_33 (+ ?v_25 (+ ?v_2 (+ ?v_97 (+ ?v_0 (+ ?v_90 (+ ?v_1 (+ ?v_92 (+ ?v_56 (+ ?v_17 (+ ?v_119 (+ ?v_27 (+ ?v_28 (+ ?v_29 (+ ?v_81 (+ ?v_37 (+ ?v_18 (+ ?v_86 (+ ?v_111 (+ ?v_26 (+ ?v_30 ?v_113)))))))))))))))))))))))))))) 0) (<= (+ ?v_40 (+ ?v_70 (+ ?v_32 (+ ?v_71 (+ ?v_23 (+ ?v_33 (+ ?v_90 (+ ?v_24 (+ ?v_17 (+ ?v_119 (+ ?v_118 (+ ?v_84 (+ ?v_37 (+ ?v_92 (+ ?v_55 (+ ?v_18 (+ ?v_102 (+ ?v_69 (+ ?v_7 (+ ?v_99 (+ ?v_29 (+ ?v_80 (+ ?v_52 (+ ?v_30 ?v_53)))))))))))))))))))))))) 0) (<= (+ ?v_109 (+ ?v_41 (+ ?v_84 (+ ?v_76 (+ ?v_65 (+ ?v_44 (+ ?v_46 (+ ?v_16 (+ ?v_25 (+ ?v_108 (+ ?v_78 (+ ?v_55 (+ ?v_57 (+ ?v_117 (+ ?v_3 (+ ?v_19 (+ ?v_28 (+ ?v_58 (+ ?v_80 (+ ?v_120 (+ ?v_39 (+ ?v_62 (+ ?v_124 (+ ?v_107 ?v_61)))))))))))))))))))))))) 1) (<= (+ ?v_110 (+ ?v_15 (+ ?v_72 (+ ?v_125 (+ ?v_11 (+ ?v_42 (+ ?v_43 (+ ?v_84 (+ ?v_85 (+ ?v_91 (+ ?v_1 (+ ?v_92 (+ ?v_55 (+ ?v_49 (+ ?v_3 (+ ?v_73 (+ ?v_7 (+ ?v_28 (+ ?v_39 (+ ?v_107 (+ ?v_82 (+ ?v_68 (+ (* 2 x29) (+ ?v_8 (+ ?v_111 (+ ?v_26 ?v_126)))))))))))))))))))))))))) 1) (<= (+ ?v_109 (+ ?v_110 (+ ?v_63 (+ ?v_5 (+ ?v_45 (+ ?v_42 (+ ?v_1 (+ ?v_57 (+ ?v_79 (+ ?v_72 (+ ?v_92 (+ (* (- 2) x34) (+ ?v_47 (+ ?v_114 (+ ?v_59 (+ ?v_60 (+ ?v_43 (+ ?v_84 (+ ?v_81 (+ ?v_82 (+ ?v_18 (+ ?v_106 ?v_126)))))))))))))))))))))) 0) (<= (+ ?v_127 (+ ?v_32 (+ ?v_24 (+ ?v_5 (+ ?v_36 (+ ?v_81 (+ ?v_77 (+ ?v_66 (+ ?v_47 (+ ?v_34 (+ ?v_48 (+ ?v_55 (+ ?v_57 (+ ?v_49 (+ ?v_73 (+ ?v_51 (+ ?v_69 (+ ?v_3 (+ ?v_86 (+ ?v_30 (+ ?v_53 (+ (* 2 x14) ?v_31)))))))))))))))))))))) 0) (<= (+ ?v_33 (+ ?v_128 (+ ?v_17 (+ ?v_47 (+ ?v_83 (+ ?v_74 (+ ?v_40 (+ ?v_22 (+ ?v_41 (+ ?v_10 (+ ?v_42 (+ ?v_1 (+ ?v_123 (+ ?v_55 (+ ?v_56 (+ ?v_57 (+ ?v_49 (+ ?v_73 (+ ?v_19 (+ ?v_81 (+ ?v_66 (+ ?v_129 (+ ?v_120 (+ ?v_88 (+ ?v_100 (+ (* 2 x21) ?v_89)))))))))))))))))))))))))) 1) (<= (+ ?v_22 (+ (* (- 3) x33) (+ ?v_11 (+ ?v_9 (+ ?v_43 (+ ?v_84 (+ ?v_101 (+ ?v_85 (+ ?v_65 (+ ?v_45 (+ ?v_92 (+ ?v_93 (+ ?v_0 (+ ?v_35 (+ ?v_124 (+ ?v_82 (+ ?v_31 (+ ?v_102 (+ ?v_99 (+ ?v_69 (+ ?v_86 (+ ?v_88 (+ ?v_39 ?v_62))))))))))))))))))))))) 0) (<= (+ ?v_96 (+ ?v_90 (+ ?v_78 (+ ?v_74 (+ ?v_40 (+ ?v_9 (+ ?v_5 (+ ?v_92 (+ ?v_20 (+ ?v_99 (+ ?v_28 (+ ?v_101 (+ ?v_98 (+ ?v_55 (+ ?v_61 (+ ?v_69 (+ ?v_8 (+ ?v_95 (+ ?v_52 ?v_62))))))))))))))))))) 0)))))
(check-sat)
(exit)
